2127
3209
2152
2701
1026
1229
3218
1115
646
3194
1735
3204
3049
896
865
1163
1691
1982
2622
2789
553
855
2911
2314
2460
2203
2822
3129
908
927
2152
1765
2583
2690
645
1366
1731
1971
3511
1095
2463
1556
2661
3073
1862
1754
1600
325
2879
1439
2101
1986
2627
1745
1276
2999
2156
752
2868
599
2704
1216
2647
3707
2745
3520
2810
2385
2562
803

32050
47860
24397
33379
6323
17462
44015
10168
7258
47716
21055
52710
39667
4060
2874

892
1332
679
929
176
486
1225
283
202
1328
586
1467
1104
113
80

2176.4

85
127
65
89
17
47
117
27
20
127
56
140
105
11
8
44
72
88
119
118
2
10
136
98
101
75
114
133
42
22
62
82
128
128
17
50
45
85
135
11
98
28
109
106
44
82
35
12
139
41
97
90
90
71
59
142
82
25
117
22
92
16
125
142
115
136
116
118
112
26
